experiments/21_JSA_experiments/solutions/scalability/imx8a/IN_10_3.json-ILP-IDLE-MAX.out.log
Using license file /home/benedond/gurobi.lic
Using gurobi.env file
Set parameter Threads to value 1
Academic license - for non-commercial use only
Changed value of parameter TimeLimit to 300.0
   Prev: inf  Min: 0.0  Max: inf  Default: inf
Gurobi Optimizer version 9.0.1 build v9.0.1rc0 (linux64)
Optimize a model with 240 rows, 210 columns and 828 nonzeros
Model fingerprint: 0x92f488ca
Variable types: 10 continuous, 200 integer (200 binary)
Coefficient statistics:
  Matrix range     [1e+00, 4e+02]
  Objective range  [7e+01, 4e+02]
  Bounds range     [1e+00, 1e+00]
  RHS range        [1e+00, 5e+02]
Presolve removed 162 rows and 148 columns
Presolve time: 0.01s
Presolved: 78 rows, 62 columns, 424 nonzeros
Variable types: 6 continuous, 56 integer (56 binary)

Root relaxation: objective 1.817000e+03, 40 iterations, 0.00 seconds

    Nodes    |    Current Node    |     Objective Bounds      |     Work
 Expl Unexpl |  Obj  Depth IntInf | Incumbent    BestBd   Gap | It/Node Time

     0     0 1817.00000    0    8          - 1817.00000      -     -    0s
H    0     0                    1583.0000000 1817.00000  14.8%     -    0s
     0     0 1817.00000    0    9 1583.00000 1817.00000  14.8%     -    0s
     0     0 1817.00000    0    7 1583.00000 1817.00000  14.8%     -    0s
     0     0 1817.00000    0    8 1583.00000 1817.00000  14.8%     -    0s
     0     0 1817.00000    0    6 1583.00000 1817.00000  14.8%     -    0s
H    0     0                    1613.0000000 1817.00000  12.6%     -    0s
     0     0 1817.00000    0    7 1613.00000 1817.00000  12.6%     -    0s
     0     0 1817.00000    0    9 1613.00000 1817.00000  12.6%     -    0s
     0     0 1817.00000    0   14 1613.00000 1817.00000  12.6%     -    0s
     0     0 1817.00000    0    7 1613.00000 1817.00000  12.6%     -    0s
     0     0 1817.00000    0    8 1613.00000 1817.00000  12.6%     -    0s
     0     0 1817.00000    0    6 1613.00000 1817.00000  12.6%     -    0s
     0     0 1817.00000    0    6 1613.00000 1817.00000  12.6%     -    0s
     0     2 1817.00000    0    6 1613.00000 1817.00000  12.6%     -    0s

Cutting planes:
  Cover: 9
  Clique: 4
  MIR: 12
  GUB cover: 1
  RLT: 1
  Relax-and-lift: 5

Explored 103 nodes (721 simplex iterations) in 0.06 seconds
Thread count was 1 (of 4 available processors)

Solution count 2: 1613 1583 

Optimal solution found (tolerance 1.00e-04)
Best objective 1.613000000000e+03, best bound 1.613000000000e+03, gap 0.0000%
